
Gurobi 8.1.0 (win64, Python) logging started 11/29/18 00:19:35

Academic license - for non-commercial use only

Gurobi 8.1.0 (win64, Python) logging started 11/29/18 00:21:34

Academic license - for non-commercial use only

Gurobi 8.1.0 (win64, Python) logging started 11/29/18 00:22:28

Academic license - for non-commercial use only

Gurobi 8.1.0 (win64, Python) logging started 11/29/18 00:24:21

Academic license - for non-commercial use only

Gurobi 8.1.0 (win64, Python) logging started 11/29/18 00:27:55

Academic license - for non-commercial use only

Gurobi 8.1.0 (win64, Python) logging started 11/29/18 00:28:55

Academic license - for non-commercial use only

Gurobi 8.1.0 (win64, Python) logging started 11/29/18 00:33:38

Academic license - for non-commercial use only

Warning: excessive time spent in model updates.
Consider calling update less frequently.

Optimize a model with 5002 rows, 5208 columns and 1045416 nonzeros
Coefficient statistics:
  Matrix range     [7e-05, 4e+00]
  Objective range  [0e+00, 0e+00]
  Bounds range     [2e-01, 2e-01]
  RHS range        [5e-02, 1e+00]
Presolve removed 5000 rows and 5000 columns
Presolve time: 0.41s
Presolved: 2 rows, 208 columns, 416 nonzeros

Iteration    Objective       Primal Inf.    Dual Inf.      Time
       0    0.0000000e+00   4.220000e+01   0.000000e+00      0s
       7    0.0000000e+00   0.000000e+00   0.000000e+00      1s

Solved in 7 iterations and 0.55 seconds
Optimal objective  0.000000000e+00
